
Gurobi 8.1.0 (win64, Python) logging started 10/29/18 10:36:07

Academic license - for non-commercial use only

Gurobi 8.1.0 (win64, Python) logging started 10/29/18 10:39:33

Academic license - for non-commercial use only
Optimize a model with 8 rows, 16 columns and 32 nonzeros
Coefficient statistics:
  Matrix range     [1e+00, 1e+00]
  Objective range  [1e+00, 8e+00]
  Bounds range     [0e+00, 0e+00]
  RHS range        [1e+00, 1e+00]
Presolve removed 2 rows and 2 columns
Presolve time: 0.03s
Presolved: 6 rows, 14 columns, 28 nonzeros

Iteration    Objective       Primal Inf.    Dual Inf.      Time
       0    3.9920000e+00   2.004000e+00   0.000000e+00      0s
       3    8.0000000e+00   0.000000e+00   0.000000e+00      0s

Solved in 3 iterations and 0.05 seconds
Optimal objective  8.000000000e+00

Gurobi 8.1.0 (win64, Python) logging started 10/29/18 10:51:28

Academic license - for non-commercial use only
Optimize a model with 8 rows, 16 columns and 32 nonzeros
Coefficient statistics:
  Matrix range     [1e+00, 1e+00]
  Objective range  [1e+00, 8e+00]
  Bounds range     [0e+00, 0e+00]
  RHS range        [1e+00, 1e+00]
Presolve removed 2 rows and 2 columns
Presolve time: 0.01s
Presolved: 6 rows, 14 columns, 28 nonzeros

Iteration    Objective       Primal Inf.    Dual Inf.      Time
       0    3.9920000e+00   2.004000e+00   0.000000e+00      0s
       3    8.0000000e+00   0.000000e+00   0.000000e+00      0s

Solved in 3 iterations and 0.03 seconds
Optimal objective  8.000000000e+00
